n = 10;
m = 4;

G =
  [
    [ 0.0 0.0 0.0 0.77 0.0 0.0 0.0 0.8 0.94 0.0 ]
    [ 0.0 0.0 0.0 0.0 0.0 0.0 0.0 0.0 0.0 0.0 ]
    [ 0.0 0.0 0.0 0.0 0.68 0.15 0.0 0.0 0.62 0.0 ]
    [ 0.77 0.0 0.0 0.0 0.0 0.0 0.0 0.35 0.06 0.18 ]
    [ 0.0 0.0 0.68 0.0 0.0 0.53 0.13 0.0 0.0 0.0 ]
    [ 0.0 0.0 0.15 0.0 0.53 0.0 0.0 0.0 0.26 0.0 ]
    [ 0.0 0.0 0.0 0.0 0.13 0.0 0.0 0.0 0.0 0.0 ]
    [ 0.8 0.0 0.0 0.35 0.0 0.0 0.0 0.0 0.04 0.02 ]
    [ 0.94 0.0 0.62 0.06 0.0 0.26 0.0 0.04 0.0 0.76 ]
    [ 0.0 0.0 0.0 0.18 0.0 0.0 0.0 0.02 0.76 0.0 ]
  ];

H =
  [
    [ 0.0 0.86 0.47 0.02 ]
    [ 0.86 0.0 0.64 0.08 ]
    [ 0.47 0.64 0.0 0.65 ]
    [ 0.02 0.08 0.65 0.0 ]
  ];